unsat
((set-logic NIA)
(declare-fun s!1 () Int)
(declare-fun r!2 () Int)
(declare-fun x!0 () Int)
(proof
(let ((?x1166 (* (- 1) s!1)))
 (let ((?x711 (* r!2 r!2)))
 (let ((?x1359 (* 3 ?x711)))
 (let ((?x253 (* r00 r00)))
 (let ((?x267 (* (- 3) ?x253)))
 (let ((?x1664 (+ s00 ?x267 ?x1359 ?x1166)))
 (let (($x1226 (<= ?x1664 0)))
 (let (($x1017 (= ?x1664 0)))
 (let ((?x1613 (* r!2 s!1)))
 (let ((?x764 (* (- 108) ?x1613)))
 (let ((?x1519 (* s!1 s!1 s!1)))
 (let ((?x802 (* (- 1) ?x1519)))
 (let ((?x1163 (+ 3 (* 6 r!2) s!1)))
 (let ((?x1164 (+ ?x1166 x!0)))
 (let ((?x1170 (+ 1 r!2)))
 (let ((?x1161 (* (- 1) (* ?x1170 ?x1170 ?x1164 ?x1164 ?x1164 ?x1163 ?x1163 ?x1163))))
 (let ((?x559 (* (- 216) (* r!2 r!2 r!2))))
 (let ((?x752 (* (- 108) (* r!2 r!2 s!1))))
 (let ((?x715 (* s!1 s!1)))
 (let ((?x560 (* (- 9) ?x715)))
 (let ((?x562 (* (- 28) s!1)))
 (let ((?x811 (* (- 162) r!2)))
 (let ((?x808 (* (- 324) ?x711)))
 (let ((?x567 (* r!2 s!1 s!1)))
 (let ((?x801 (* (- 18) ?x567)))
 (let ((?x1363 (* (+ (- 27) ?x801 ?x808 ?x811 ?x562 ?x560 ?x752 ?x559 x!0 ?x1161 ?x802 ?x764) ?x1664)))
 (let (($x898 (= ?x1363 0)))
 (let (($x1665 (not $x898)))
 (let ((?x1298 (* x00 x00)))
 (let ((?x839 (* 108 ?x1298)))
 (let ((?x1136 (* s00 s00 s00)))
 (let ((?x1586 (* 16 ?x1136)))
 (let ((?x834 (* r00 r00 r00 x00)))
 (let ((?x913 (* (- 432) ?x834)))
 (let ((?x757 (* s00 x00)))
 (let ((?x1437 (* (- 108) ?x757)))
 (let ((?x646 (* (- 9) s!1)))
 (let ((?x623 (* r00 r00 s!1)))
 (let ((?x643 (* 36 ?x623)))
 (let ((?x599 (* s00 r00 r00)))
 (let ((?x668 (* (- 36) ?x599)))
 (let ((?x543 (* s00 s00)))
 (let ((?x855 (* 51 ?x543)))
 (let ((?x474 (* r00 x00)))
 (let ((?x331 (* 108 ?x474)))
 (let ((?x137 (* 9 s00)))
 (let ((?x1478 (+ ?x137 (* 108 (* x00 s!1)) (* 36 (* r00 r00 s!1 s!1)) (* (- 54) (* s00 r00)) (* 216 (* s00 r00 x00)) ?x331 ?x855 (* (- 108) (* r00 x!0)) ?x668 (* (- 108) (* s00 s00 r00)) ?x643 (* 108 (* s00 r00 s!1)) (* (- 36) (* s00 s00 r00 r00)) ?x646 (* 15 ?x715) ?x1437 ?x913 (* (- 216) (* r00 r00 r00 s!1)) (* 216 (* s00 r00 r00 r00)) (* (- 216) (* x00 x!0)) ?x1586 (* 108 (* s00 x!0)) ?x839 (* 54 (* r00 s!1)) (* (- 66) (* s00 s!1)) (* 108 (* x!0 x!0)) (* 432 (* r00 r00 r00 x!0)) (* (- 216) (* s00 r00 x!0)) (* (- 4) ?x1519) (* (- 108) (* s!1 x!0)) (* (- 12) (* s00 s!1 s!1)))))
 (let ((?x829 (* r00 r00 x00)))
 (let ((?x1285 (* 36 ?x829)))
 (let ((?x627 (* (- 6) ?x757)))
 (let ((?x933 (* 15 ?x543)))
 (let ((?x1129 (* 54 ?x474)))
 (let ((?x667 (+ ?x137 (* 6 (* x00 s!1)) (* (- 36) (* r00 r!2 x!0)) (* (- 36) (* r00 r00 x!0)) (* (- 24) (* s00 r00)) (* 54 (* x00 r!2)) ?x1129 ?x933 (* (- 2) ?x567) (* (- 54) (* r00 x!0)) ?x668 (* 2 (* s00 s00 r00)) ?x643 (* 2 (* s00 r00 s!1)) (* (- 4) (* r00 s!1 s!1)) ?x646 (* (- 3) ?x715) (* (- 54) (* r!2 x!0)) ?x627 (* 4 (* s00 s00 r!2)) ?x1285 (* 6 (* s00 x!0)) (* 24 (* r00 s!1)) (* 36 (* r00 x00 r!2)) (* (- 12) (* s00 s!1)) (* (- 2) (* s00 r!2 s!1)) (* 24 ?x1613) (* (- 6) (* s!1 x!0)) (* (- 24) (* s00 r!2)))))
 (let ((?x1518 (* (- 3) s!1)))
 (let ((?x1126 (* 4 ?x543)))
 (let ((?x1419 (* 18 ?x474)))
 (let ((?x44 (* 3 s00)))
 (let ((?x991 (+ ?x44 (* (- 9) (* s00 r00)) (* 18 (* x00 r!2)) ?x1419 ?x1126 (* (- 18) (* r00 x!0)) (* (- 6) ?x599) (* 6 ?x623) ?x1518 (* (- 2) ?x715) (* (- 18) (* r!2 x!0)) (* 6 (* s00 r00 r!2)) (* 9 (* r00 s!1)) (* (- 2) (* s00 s!1)) (* (- 6) (* r00 r!2 s!1)) (* 9 ?x1613) (* (- 9) (* s00 r!2)))))
 (let ((?x1662 (* 2 ?x1613)))
 (let ((?x481 (* 6 x!0)))
 (let ((?x1100 (* 3 r!2)))
 (let ((?x421 (* r00 r00 r00)))
 (let ((?x422 (* 12 ?x421)))
 (let ((?x378 (* s00 r00)))
 (let ((?x456 (* (- 6) ?x378)))
 (let ((?x453 (* (- 6) x00)))
 (let ((?x452 (* (- 3) r00)))
 (let ((?x607 (+ ?x44 ?x452 ?x453 ?x456 ?x422 ?x1100 ?x1518 ?x481 (* (- 12) (* r00 r00 r!2)) ?x1662 (* 4 (* s00 r!2)))))
 (let (($x557 (and $x1017 (= ?x607 0) (= ?x991 0) (= ?x667 0) (= ?x1478 0) $x1665)))
 (let ((?x1648 (* (+ (- 27) ?x811 ?x562 x!0 ?x808 ?x764 ?x560 ?x802 ?x801 ?x559 ?x752 ?x1161) (+ ?x1166 s00 ?x1359 ?x267))))
 (let ((?x1328 (* (- 108) ?x1298)))
 (let ((?x1327 (* (- 16) ?x1136)))
 (let ((?x1008 (* s00 r00 r00 r00)))
 (let ((?x1323 (* (- 216) ?x1008)))
 (let ((?x835 (* 432 ?x834)))
 (let ((?x1081 (* 108 ?x757)))
 (let ((?x683 (* s00 s00 r00 r00)))
 (let ((?x684 (* 36 ?x683)))
 (let ((?x620 (* s00 s00 r00)))
 (let ((?x964 (* 108 ?x620)))
 (let ((?x952 (* 36 ?x599)))
 (let ((?x1317 (* (- 51) ?x543)))
 (let ((?x1654 (* s!1 r00 r00)))
 (let ((?x1555 (* (- 36) ?x1654)))
 (let ((?x1314 (* (- 108) ?x474)))
 (let ((?x465 (* s00 r00 x00)))
 (let ((?x1313 (* (- 216) ?x465)))
 (let ((?x472 (* 54 ?x378)))
 (let ((?x939 (* (- 9) s00)))
 (let ((?x1633 (* 9 s!1)))
 (let ((?x813 (+ ?x1633 ?x939 ?x472 ?x1313 ?x1314 (* (- 15) ?x715) ?x1555 ?x1317 (* (- 108) (* x!0 s00)) (* 108 (* x!0 r00)) (* 216 (* s!1 r00 r00 r00)) ?x952 ?x964 (* 66 (* s!1 s00)) (* (- 54) (* s!1 r00)) (* (- 108) (* s!1 x00)) ?x684 (* (- 108) (* s!1 s00 r00)) (* 4 ?x1519) ?x1081 (* 108 (* s!1 x!0)) (* (- 108) (* x!0 x!0)) ?x835 (* 12 (* s!1 s!1 s00)) ?x1323 (* (- 432) (* x!0 r00 r00 r00)) (* 216 (* x!0 s00 r00)) (* (- 36) (* s!1 s!1 r00 r00)) ?x1327 (* 216 (* x!0 x00)) ?x1328)))
 (let ((?x842 (* (- 36) ?x829)))
 (let ((?x758 (* 6 ?x757)))
 (let ((?x648 (* (- 2) ?x620)))
 (let ((?x868 (* (- 15) ?x543)))
 (let ((?x503 (* (- 54) ?x474)))
 (let ((?x516 (* 24 ?x378)))
 (let ((?x1636 (+ ?x1633 ?x939 (* (- 24) ?x1613) (* 24 (* r!2 s00)) ?x516 ?x503 (* 3 ?x715) (* 54 (* r!2 x!0)) (* 36 (* r!2 x!0 r00)) ?x1555 ?x868 (* (- 6) (* x!0 s00)) (* 54 (* x!0 r00)) ?x952 (* 4 (* s!1 s!1 r00)) (* (- 54) (* r!2 x00)) ?x648 (* 12 (* s!1 s00)) (* (- 24) (* s!1 r00)) (* (- 6) (* s!1 x00)) (* (- 2) (* s!1 s00 r00)) ?x758 (* 2 ?x567) (* 6 (* s!1 x!0)) (* (- 4) (* r!2 s00 s00)) ?x842 (* 2 (* r!2 s!1 s00)) (* (- 36) (* r!2 r00 x00)) (* 36 (* x!0 r00 r00)))))
 (let ((?x600 (* 6 ?x599)))
 (let ((?x556 (* (- 4) ?x543)))
 (let ((?x488 (* (- 18) ?x474)))
 (let ((?x493 (* 9 ?x378)))
 (let ((?x330 (* (- 3) s00)))
 (let ((?x385 (+ (* 3 s!1) ?x330 (* (- 9) ?x1613) (* 9 (* r!2 s00)) ?x493 ?x488 (* 2 ?x715) (* 18 (* r!2 x!0)) (* 6 (* r!2 s!1 r00)) (* (- 6) ?x1654) ?x556 (* 18 (* x!0 r00)) ?x600 (* (- 18) (* r!2 x00)) (* 2 (* s!1 s00)) (* (- 9) (* s!1 r00)) (* (- 6) (* r!2 s00 r00)))))
 (let ((?x1477 (+ ?x1100 ?x1518 ?x481 ?x44 ?x452 ?x453 ?x1662 (* (- 12) (* r!2 r00 r00)) (* 4 (* r!2 s00)) ?x456 ?x422)))
 (let (($x1647 (and (= (+ s!1 (* (- 1) s00) (* (- 3) ?x711) (* 3 ?x253)) 0) (= ?x1477 0) (= ?x385 0) (= ?x1636 0) (= ?x813 0) (not (= ?x1648 0)))))
 (let (($x255 (exists ((r Int) (s Int) (x Int) )(! (let ((?x253 (* r00 r00)))
 (let ((?x267 (* (- 3) ?x253)))
 (let ((?x241 (* r r)))
 (let ((?x242 (* 3 ?x241)))
 (let ((?x232 (* (- 1) s)))
 (let ((?x211 (* 6 r)))
 (let ((?x1335 (+ 3 ?x211 s)))
 (let ((?x1428 (+ ?x232 x)))
 (let ((?x1368 (+ 1 r)))
 (let ((?x1661 (* (- 108) (* r r s))))
 (let ((?x1638 (* (- 216) (* r r r))))
 (let ((?x761 (* r s s)))
 (let ((?x1635 (* (- 18) ?x761)))
 (let ((?x755 (* s s s)))
 (let ((?x1604 (* (- 1) ?x755)))
 (let ((?x497 (* s s)))
 (let ((?x1632 (* (- 9) ?x497)))
 (let ((?x297 (* r s)))
 (let ((?x1672 (* (- 108) ?x297)))
 (let ((?x1671 (* (- 324) ?x241)))
 (let ((?x1684 (* (- 28) s)))
 (let ((?x1668 (* (- 162) r)))
 (let ((?x1257 (+ (- 27) ?x1668 ?x1684 x ?x1671 ?x1672 ?x1632 ?x1604 ?x1635 ?x1638 ?x1661 (* (- 1) (* ?x1368 ?x1368 ?x1428 ?x1428 ?x1428 ?x1335 ?x1335 ?x1335)))))
 (let ((?x1298 (* x00 x00)))
 (let ((?x1328 (* (- 108) ?x1298)))
 (let ((?x1136 (* s00 s00 s00)))
 (let ((?x1327 (* (- 16) ?x1136)))
 (let ((?x1008 (* s00 r00 r00 r00)))
 (let ((?x1323 (* (- 216) ?x1008)))
 (let ((?x834 (* r00 r00 r00 x00)))
 (let ((?x835 (* 432 ?x834)))
 (let ((?x757 (* s00 x00)))
 (let ((?x1081 (* 108 ?x757)))
 (let ((?x683 (* s00 s00 r00 r00)))
 (let ((?x684 (* 36 ?x683)))
 (let ((?x620 (* s00 s00 r00)))
 (let ((?x964 (* 108 ?x620)))
 (let ((?x599 (* s00 r00 r00)))
 (let ((?x952 (* 36 ?x599)))
 (let ((?x543 (* s00 s00)))
 (let ((?x1317 (* (- 51) ?x543)))
 (let ((?x517 (* s r00 r00)))
 (let ((?x816 (* (- 36) ?x517)))
 (let ((?x474 (* r00 x00)))
 (let ((?x1314 (* (- 108) ?x474)))
 (let ((?x465 (* s00 r00 x00)))
 (let ((?x1313 (* (- 216) ?x465)))
 (let ((?x378 (* s00 r00)))
 (let ((?x472 (* 54 ?x378)))
 (let ((?x939 (* (- 9) s00)))
 (let ((?x143 (* 9 s)))
 (let ((?x1329 (+ ?x143 ?x939 ?x472 ?x1313 ?x1314 (* (- 15) ?x497) ?x816 ?x1317 (* (- 108) (* x s00)) (* 108 (* x r00)) (* 216 (* s r00 r00 r00)) ?x952 ?x964 (* 66 (* s s00)) (* (- 54) (* s r00)) (* (- 108) (* s x00)) ?x684 (* (- 108) (* s s00 r00)) (* 4 ?x755) ?x1081 (* 108 (* s x)) (* (- 108) (* x x)) ?x835 (* 12 (* s s s00)) ?x1323 (* (- 432) (* x r00 r00 r00)) (* 216 (* x s00 r00)) (* (- 36) (* s s r00 r00)) ?x1327 (* 216 (* x x00)) ?x1328)))
 (let (($x1330 (= ?x1329 0)))
 (let ((?x829 (* r00 r00 x00)))
 (let ((?x842 (* (- 36) ?x829)))
 (let ((?x758 (* 6 ?x757)))
 (let ((?x648 (* (- 2) ?x620)))
 (let ((?x868 (* (- 15) ?x543)))
 (let ((?x521 (* 3 ?x497)))
 (let ((?x503 (* (- 54) ?x474)))
 (let ((?x516 (* 24 ?x378)))
 (let ((?x1031 (+ ?x143 ?x939 (* (- 24) ?x297) (* 24 (* r s00)) ?x516 ?x503 ?x521 (* 54 (* r x)) (* 36 (* r x r00)) ?x816 ?x868 (* (- 6) (* x s00)) (* 54 (* x r00)) ?x952 (* 4 (* s s r00)) (* (- 54) (* r x00)) ?x648 (* 12 (* s s00)) (* (- 24) (* s r00)) (* (- 6) (* s x00)) (* (- 2) (* s s00 r00)) ?x758 (* 2 ?x761) (* 6 (* s x)) (* (- 4) (* r s00 s00)) ?x842 (* 2 (* r s s00)) (* (- 36) (* r r00 x00)) (* 36 (* x r00 r00)))))
 (let (($x1036 (= ?x1031 0)))
 (let ((?x600 (* 6 ?x599)))
 (let ((?x556 (* (- 4) ?x543)))
 (let ((?x498 (* 2 ?x497)))
 (let ((?x488 (* (- 18) ?x474)))
 (let ((?x493 (* 9 ?x378)))
 (let ((?x330 (* (- 3) s00)))
 (let ((?x47 (* 3 s)))
 (let ((?x697 (+ ?x47 ?x330 (* (- 9) ?x297) (* 9 (* r s00)) ?x493 ?x488 ?x498 (* 18 (* r x)) (* 6 (* r s r00)) (* (- 6) ?x517) ?x556 (* 18 (* x r00)) ?x600 (* (- 18) (* r x00)) (* 2 (* s s00)) (* (- 9) (* s r00)) (* (- 6) (* r s00 r00)))))
 (let (($x704 (= ?x697 0)))
 (let ((?x421 (* r00 r00 r00)))
 (let ((?x422 (* 12 ?x421)))
 (let ((?x456 (* (- 6) ?x378)))
 (let ((?x453 (* (- 6) x00)))
 (let ((?x452 (* (- 3) r00)))
 (let ((?x44 (* 3 s00)))
 (let ((?x56 (* 6 x)))
 (let ((?x451 (* (- 3) s)))
 (let ((?x43 (* 3 r)))
 (let ((?x457 (+ ?x43 ?x451 ?x56 ?x44 ?x452 ?x453 (* 2 ?x297) (* (- 12) (* r r00 r00)) (* 4 (* r s00)) ?x456 ?x422)))
 (let (($x458 (= ?x457 0)))
 (let (($x286 (= (+ s (* (- 1) s00) (* (- 3) ?x241) (* 3 ?x253)) 0)))
 (and $x286 $x458 $x704 $x1036 $x1330 (not (= (* ?x1257 (+ ?x232 s00 ?x242 ?x267)) 0))))))))))))))))))))))))))))))))))))))))))))))))))))))))))))))))))))))))))))))))))))))) :qid k!35))
 ))
 (let (($x1429 (exists ((r Int) (s Int) (x Int) )(! (let ((?x253 (* r00 r00)))
 (let ((?x267 (* (- 3) ?x253)))
 (let ((?x232 (* (- 1) s)))
 (let ((?x1542 (+ (- 3) s00 ?x232 (* (- 6) r) (* 3 (* (+ 1 r) (+ 1 r))) ?x267)))
 (let ((?x211 (* 6 r)))
 (let ((?x930 (+ 3 s ?x211)))
 (let ((?x673 (+ x ?x232)))
 (let ((?x1368 (+ 1 r)))
 (let ((?x1681 (+ x ?x232 (* (- 1) (* ?x1368 ?x1368 ?x673 ?x673 ?x673 ?x930 ?x930 ?x930)) (* (- 1) (* ?x930 ?x930 ?x930)))))
 (let (($x925 (not (= (* ?x1681 ?x1542) 0))))
 (let ((?x1298 (* x00 x00)))
 (let ((?x839 (* 108 ?x1298)))
 (let ((?x549 (* (- 9) s)))
 (let ((?x1482 (* r00 r00 s00)))
 (let ((?x824 (* (- 36) ?x1482)))
 (let ((?x137 (* 9 s00)))
 (let ((?x543 (* s00 s00)))
 (let ((?x855 (* 51 ?x543)))
 (let ((?x428 (* r00 r00 s)))
 (let ((?x1228 (* 36 ?x428)))
 (let ((?x1136 (* s00 s00 s00)))
 (let ((?x1586 (* 16 ?x1136)))
 (let ((?x757 (* s00 x00)))
 (let ((?x1437 (* (- 108) ?x757)))
 (let ((?x834 (* r00 r00 r00 x00)))
 (let ((?x913 (* (- 432) ?x834)))
 (let ((?x474 (* r00 x00)))
 (let ((?x331 (* 108 ?x474)))
 (let ((?x859 (+ (* 216 (* r00 s00 x00)) ?x331 (* (- 54) (* r00 s00)) (* 15 (* s s)) (* (- 216) (* r00 r00 r00 s)) (* (- 36) (* r00 r00 s00 s00)) (* (- 4) (* s s s)) (* 108 (* x x)) ?x913 (* (- 12) (* s00 s s)) (* 108 (* s00 x)) (* (- 108) (* r00 s00 s00)) (* 216 (* r00 r00 r00 s00)) (* 108 (* x00 s)) (* 432 (* r00 r00 r00 x)) (* (- 66) (* s00 s)) (* 108 (* r00 s00 s)) ?x1437 (* (- 216) (* r00 s00 x)) (* 36 (* r00 r00 s s)) ?x1586 (* (- 108) (* x s)) ?x1228 ?x855 (* (- 108) (* r00 x)) ?x137 ?x824 ?x549 (* 54 (* r00 s)) (* (- 216) (* x00 x)) ?x839)))
 (let (($x897 (= ?x859 0)))
 (let ((?x933 (* 15 ?x543)))
 (let ((?x829 (* r00 r00 x00)))
 (let ((?x1285 (* 36 ?x829)))
 (let ((?x627 (* (- 6) ?x757)))
 (let ((?x1129 (* 54 ?x474)))
 (let ((?x976 (+ (* 24 (* s r)) ?x1129 (* (- 36) (* r00 x r)) (* (- 24) (* r00 s00)) (* (- 3) (* s s)) (* (- 54) (* x r)) (* 6 (* s00 x)) (* (- 4) (* r00 s s)) (* 2 (* r00 s00 s00)) (* 6 (* x00 s)) (* (- 12) (* s00 s)) (* 2 (* r00 s00 s)) ?x627 (* (- 2) (* s s r)) (* (- 6) (* x s)) (* 4 (* s00 s00 r)) ?x1228 ?x1285 ?x933 (* (- 2) (* s00 s r)) (* 36 (* r00 x00 r)) (* (- 54) (* r00 x)) ?x137 ?x824 (* 54 (* x00 r)) ?x549 (* (- 24) (* s00 r)) (* 24 (* r00 s)) (* (- 36) (* r00 r00 x)))))
 (let ((?x451 (* (- 3) s)))
 (let ((?x44 (* 3 s00)))
 (let ((?x1126 (* 4 ?x543)))
 (let ((?x1419 (* 18 ?x474)))
 (let ((?x1569 (+ (* 9 (* s r)) ?x1419 (* (- 9) (* r00 s00)) (* (- 2) (* s s)) (* (- 18) (* x r)) (* (- 6) (* r00 s r)) (* 6 ?x428) ?x1126 (* (- 18) (* r00 x)) ?x44 (* (- 6) ?x1482) (* 18 (* x00 r)) ?x451 (* (- 9) (* s00 r)) (* (- 2) (* s00 s)) (* 9 (* r00 s)) (* 6 (* r00 s00 r)))))
 (let ((?x421 (* r00 r00 r00)))
 (let ((?x422 (* 12 ?x421)))
 (let ((?x453 (* (- 6) x00)))
 (let ((?x56 (* 6 x)))
 (let ((?x452 (* (- 3) r00)))
 (let ((?x43 (* 3 r)))
 (let ((?x888 (+ (* 2 (* s r)) (* (- 12) (* r00 r00 r)) ?x43 ?x44 ?x451 ?x452 (* 4 (* s00 r)) (* (- 6) (* r00 s00)) ?x56 ?x453 ?x422)))
 (let (($x727 (= (+ s00 ?x232 (* 3 (* r r)) ?x267) 0)))
 (and $x727 (= ?x888 0) (= ?x1569 0) (= ?x976 0) $x897 $x925)))))))))))))))))))))))))))))))))))))))))))))))))) :qid k!35))
 ))
 (let ((?x256 (lambda ((r Int) (s Int) (x Int) )(let ((?x253 (* r00 r00)))
 (let ((?x267 (* (- 3) ?x253)))
 (let ((?x241 (* r r)))
 (let ((?x242 (* 3 ?x241)))
 (let ((?x232 (* (- 1) s)))
 (let ((?x211 (* 6 r)))
 (let ((?x1335 (+ 3 ?x211 s)))
 (let ((?x1428 (+ ?x232 x)))
 (let ((?x1368 (+ 1 r)))
 (let ((?x1661 (* (- 108) (* r r s))))
 (let ((?x1638 (* (- 216) (* r r r))))
 (let ((?x761 (* r s s)))
 (let ((?x1635 (* (- 18) ?x761)))
 (let ((?x755 (* s s s)))
 (let ((?x1604 (* (- 1) ?x755)))
 (let ((?x497 (* s s)))
 (let ((?x1632 (* (- 9) ?x497)))
 (let ((?x297 (* r s)))
 (let ((?x1672 (* (- 108) ?x297)))
 (let ((?x1671 (* (- 324) ?x241)))
 (let ((?x1684 (* (- 28) s)))
 (let ((?x1668 (* (- 162) r)))
 (let ((?x1257 (+ (- 27) ?x1668 ?x1684 x ?x1671 ?x1672 ?x1632 ?x1604 ?x1635 ?x1638 ?x1661 (* (- 1) (* ?x1368 ?x1368 ?x1428 ?x1428 ?x1428 ?x1335 ?x1335 ?x1335)))))
 (let ((?x1298 (* x00 x00)))
 (let ((?x1328 (* (- 108) ?x1298)))
 (let ((?x1136 (* s00 s00 s00)))
 (let ((?x1327 (* (- 16) ?x1136)))
 (let ((?x1008 (* s00 r00 r00 r00)))
 (let ((?x1323 (* (- 216) ?x1008)))
 (let ((?x834 (* r00 r00 r00 x00)))
 (let ((?x835 (* 432 ?x834)))
 (let ((?x757 (* s00 x00)))
 (let ((?x1081 (* 108 ?x757)))
 (let ((?x683 (* s00 s00 r00 r00)))
 (let ((?x684 (* 36 ?x683)))
 (let ((?x620 (* s00 s00 r00)))
 (let ((?x964 (* 108 ?x620)))
 (let ((?x599 (* s00 r00 r00)))
 (let ((?x952 (* 36 ?x599)))
 (let ((?x543 (* s00 s00)))
 (let ((?x1317 (* (- 51) ?x543)))
 (let ((?x517 (* s r00 r00)))
 (let ((?x816 (* (- 36) ?x517)))
 (let ((?x474 (* r00 x00)))
 (let ((?x1314 (* (- 108) ?x474)))
 (let ((?x465 (* s00 r00 x00)))
 (let ((?x1313 (* (- 216) ?x465)))
 (let ((?x378 (* s00 r00)))
 (let ((?x472 (* 54 ?x378)))
 (let ((?x939 (* (- 9) s00)))
 (let ((?x143 (* 9 s)))
 (let ((?x1329 (+ ?x143 ?x939 ?x472 ?x1313 ?x1314 (* (- 15) ?x497) ?x816 ?x1317 (* (- 108) (* x s00)) (* 108 (* x r00)) (* 216 (* s r00 r00 r00)) ?x952 ?x964 (* 66 (* s s00)) (* (- 54) (* s r00)) (* (- 108) (* s x00)) ?x684 (* (- 108) (* s s00 r00)) (* 4 ?x755) ?x1081 (* 108 (* s x)) (* (- 108) (* x x)) ?x835 (* 12 (* s s s00)) ?x1323 (* (- 432) (* x r00 r00 r00)) (* 216 (* x s00 r00)) (* (- 36) (* s s r00 r00)) ?x1327 (* 216 (* x x00)) ?x1328)))
 (let (($x1330 (= ?x1329 0)))
 (let ((?x829 (* r00 r00 x00)))
 (let ((?x842 (* (- 36) ?x829)))
 (let ((?x758 (* 6 ?x757)))
 (let ((?x648 (* (- 2) ?x620)))
 (let ((?x868 (* (- 15) ?x543)))
 (let ((?x521 (* 3 ?x497)))
 (let ((?x503 (* (- 54) ?x474)))
 (let ((?x516 (* 24 ?x378)))
 (let ((?x1031 (+ ?x143 ?x939 (* (- 24) ?x297) (* 24 (* r s00)) ?x516 ?x503 ?x521 (* 54 (* r x)) (* 36 (* r x r00)) ?x816 ?x868 (* (- 6) (* x s00)) (* 54 (* x r00)) ?x952 (* 4 (* s s r00)) (* (- 54) (* r x00)) ?x648 (* 12 (* s s00)) (* (- 24) (* s r00)) (* (- 6) (* s x00)) (* (- 2) (* s s00 r00)) ?x758 (* 2 ?x761) (* 6 (* s x)) (* (- 4) (* r s00 s00)) ?x842 (* 2 (* r s s00)) (* (- 36) (* r r00 x00)) (* 36 (* x r00 r00)))))
 (let (($x1036 (= ?x1031 0)))
 (let ((?x600 (* 6 ?x599)))
 (let ((?x556 (* (- 4) ?x543)))
 (let ((?x498 (* 2 ?x497)))
 (let ((?x488 (* (- 18) ?x474)))
 (let ((?x493 (* 9 ?x378)))
 (let ((?x330 (* (- 3) s00)))
 (let ((?x47 (* 3 s)))
 (let ((?x697 (+ ?x47 ?x330 (* (- 9) ?x297) (* 9 (* r s00)) ?x493 ?x488 ?x498 (* 18 (* r x)) (* 6 (* r s r00)) (* (- 6) ?x517) ?x556 (* 18 (* x r00)) ?x600 (* (- 18) (* r x00)) (* 2 (* s s00)) (* (- 9) (* s r00)) (* (- 6) (* r s00 r00)))))
 (let (($x704 (= ?x697 0)))
 (let ((?x421 (* r00 r00 r00)))
 (let ((?x422 (* 12 ?x421)))
 (let ((?x456 (* (- 6) ?x378)))
 (let ((?x453 (* (- 6) x00)))
 (let ((?x452 (* (- 3) r00)))
 (let ((?x44 (* 3 s00)))
 (let ((?x56 (* 6 x)))
 (let ((?x451 (* (- 3) s)))
 (let ((?x43 (* 3 r)))
 (let ((?x457 (+ ?x43 ?x451 ?x56 ?x44 ?x452 ?x453 (* 2 ?x297) (* (- 12) (* r r00 r00)) (* 4 (* r s00)) ?x456 ?x422)))
 (let (($x458 (= ?x457 0)))
 (let (($x286 (= (+ s (* (- 1) s00) (* (- 3) ?x241) (* 3 ?x253)) 0)))
 (let (($x887 (and $x286 $x458 $x704 $x1036 $x1330 (not (= (* ?x1257 (+ ?x232 s00 ?x242 ?x267)) 0)))))
 (let ((?x1386 (* (- 1) (* (+ 3 s ?x211) (+ 3 s ?x211) (+ 3 s ?x211)))))
 (let ((?x930 (+ 3 s ?x211)))
 (let ((?x673 (+ x ?x232)))
 (let ((?x1681 (+ x ?x232 (* (- 1) (* ?x1368 ?x1368 ?x673 ?x673 ?x673 ?x930 ?x930 ?x930)) ?x1386)))
 (let ((?x1061 (* ?x1681 (+ (- 3) s00 ?x232 (* (- 6) r) (* 3 (* ?x1368 ?x1368)) ?x267))))
 (let (($x925 (not (= ?x1061 0))))
 (let ((?x839 (* 108 ?x1298)))
 (let ((?x549 (* (- 9) s)))
 (let ((?x1482 (* r00 r00 s00)))
 (let ((?x824 (* (- 36) ?x1482)))
 (let ((?x137 (* 9 s00)))
 (let ((?x855 (* 51 ?x543)))
 (let ((?x428 (* r00 r00 s)))
 (let ((?x1228 (* 36 ?x428)))
 (let ((?x1586 (* 16 ?x1136)))
 (let ((?x1437 (* (- 108) ?x757)))
 (let ((?x913 (* (- 432) ?x834)))
 (let ((?x331 (* 108 ?x474)))
 (let ((?x859 (+ (* 216 (* r00 s00 x00)) ?x331 (* (- 54) (* r00 s00)) (* 15 ?x497) (* (- 216) (* r00 r00 r00 s)) (* (- 36) (* r00 r00 s00 s00)) (* (- 4) ?x755) (* 108 (* x x)) ?x913 (* (- 12) (* s00 s s)) (* 108 (* s00 x)) (* (- 108) (* r00 s00 s00)) (* 216 (* r00 r00 r00 s00)) (* 108 (* x00 s)) (* 432 (* r00 r00 r00 x)) (* (- 66) (* s00 s)) (* 108 (* r00 s00 s)) ?x1437 (* (- 216) (* r00 s00 x)) (* 36 (* r00 r00 s s)) ?x1586 (* (- 108) (* x s)) ?x1228 ?x855 (* (- 108) (* r00 x)) ?x137 ?x824 ?x549 (* 54 (* r00 s)) (* (- 216) (* x00 x)) ?x839)))
 (let (($x897 (= ?x859 0)))
 (let ((?x933 (* 15 ?x543)))
 (let ((?x1285 (* 36 ?x829)))
 (let ((?x627 (* (- 6) ?x757)))
 (let ((?x1129 (* 54 ?x474)))
 (let ((?x976 (+ (* 24 (* s r)) ?x1129 (* (- 36) (* r00 x r)) (* (- 24) (* r00 s00)) (* (- 3) ?x497) (* (- 54) (* x r)) (* 6 (* s00 x)) (* (- 4) (* r00 s s)) (* 2 (* r00 s00 s00)) (* 6 (* x00 s)) (* (- 12) (* s00 s)) (* 2 (* r00 s00 s)) ?x627 (* (- 2) (* s s r)) (* (- 6) (* x s)) (* 4 (* s00 s00 r)) ?x1228 ?x1285 ?x933 (* (- 2) (* s00 s r)) (* 36 (* r00 x00 r)) (* (- 54) (* r00 x)) ?x137 ?x824 (* 54 (* x00 r)) ?x549 (* (- 24) (* s00 r)) (* 24 (* r00 s)) (* (- 36) (* r00 r00 x)))))
 (let ((?x1126 (* 4 ?x543)))
 (let ((?x1419 (* 18 ?x474)))
 (let ((?x1569 (+ (* 9 (* s r)) ?x1419 (* (- 9) (* r00 s00)) (* (- 2) ?x497) (* (- 18) (* x r)) (* (- 6) (* r00 s r)) (* 6 ?x428) ?x1126 (* (- 18) (* r00 x)) ?x44 (* (- 6) ?x1482) (* 18 (* x00 r)) ?x451 (* (- 9) (* s00 r)) (* (- 2) (* s00 s)) (* 9 (* r00 s)) (* 6 (* r00 s00 r)))))
 (let ((?x888 (+ (* 2 (* s r)) (* (- 12) (* r00 r00 r)) ?x43 ?x44 ?x451 ?x452 (* 4 (* s00 r)) (* (- 6) (* r00 s00)) ?x56 ?x453 ?x422)))
 (let (($x727 (= (+ s00 ?x232 ?x242 ?x267) 0)))
 (let (($x978 (and $x727 (= ?x888 0) (= ?x1569 0) (= ?x976 0) $x897 $x925)))
 (rewrite (= $x978 $x887)))))))))))))))))))))))))))))))))))))))))))))))))))))))))))))))))))))))))))))))))))))))))))))))))))))))))))))))))))))))
 ))
 (let (($x943 (exists ((r Int) (s Int) (x Int) )(! (let ((?x253 (* r00 r00)))
 (let ((?x267 (* (- 3) ?x253)))
 (let ((?x232 (* (- 1) s)))
 (let ((?x1542 (+ (- 3) s00 ?x232 (* (- 6) r) (* 3 (* (+ 1 r) (+ 1 r))) ?x267)))
 (let ((?x211 (* 6 r)))
 (let ((?x930 (+ 3 s ?x211)))
 (let ((?x673 (+ x ?x232)))
 (let ((?x1368 (+ 1 r)))
 (let ((?x1681 (+ x ?x232 (* (- 1) (* ?x1368 ?x1368 ?x673 ?x673 ?x673 ?x930 ?x930 ?x930)) (* (- 1) (* ?x930 ?x930 ?x930)))))
 (let (($x925 (not (= (* ?x1681 ?x1542) 0))))
 (let ((?x1298 (* x00 x00)))
 (let ((?x839 (* 108 ?x1298)))
 (let ((?x549 (* (- 9) s)))
 (let ((?x1482 (* r00 r00 s00)))
 (let ((?x824 (* (- 36) ?x1482)))
 (let ((?x137 (* 9 s00)))
 (let ((?x543 (* s00 s00)))
 (let ((?x855 (* 51 ?x543)))
 (let ((?x428 (* r00 r00 s)))
 (let ((?x1228 (* 36 ?x428)))
 (let ((?x1136 (* s00 s00 s00)))
 (let ((?x1586 (* 16 ?x1136)))
 (let ((?x757 (* s00 x00)))
 (let ((?x1437 (* (- 108) ?x757)))
 (let ((?x834 (* r00 r00 r00 x00)))
 (let ((?x913 (* (- 432) ?x834)))
 (let ((?x474 (* r00 x00)))
 (let ((?x331 (* 108 ?x474)))
 (let ((?x859 (+ (* 216 (* r00 s00 x00)) ?x331 (* (- 54) (* r00 s00)) (* 15 (* s s)) (* (- 216) (* r00 r00 r00 s)) (* (- 36) (* r00 r00 s00 s00)) (* (- 4) (* s s s)) (* 108 (* x x)) ?x913 (* (- 12) (* s00 s s)) (* 108 (* s00 x)) (* (- 108) (* r00 s00 s00)) (* 216 (* r00 r00 r00 s00)) (* 108 (* x00 s)) (* 432 (* r00 r00 r00 x)) (* (- 66) (* s00 s)) (* 108 (* r00 s00 s)) ?x1437 (* (- 216) (* r00 s00 x)) (* 36 (* r00 r00 s s)) ?x1586 (* (- 108) (* x s)) ?x1228 ?x855 (* (- 108) (* r00 x)) ?x137 ?x824 ?x549 (* 54 (* r00 s)) (* (- 216) (* x00 x)) ?x839)))
 (let (($x897 (= ?x859 0)))
 (let ((?x143 (* 9 s)))
 (let ((?x939 (* (- 9) s00)))
 (let ((?x868 (* (- 15) ?x543)))
 (let ((?x829 (* r00 r00 x00)))
 (let ((?x842 (* (- 36) ?x829)))
 (let ((?x758 (* 6 ?x757)))
 (let ((?x497 (* s s)))
 (let ((?x521 (* 3 ?x497)))
 (let ((?x503 (* (- 54) ?x474)))
 (let ((?x1064 (+ (* (- 24) (* s r)) ?x503 (* 36 (* r00 x r)) (* 24 (* r00 s00)) ?x521 (* 54 (* x r)) (* (- 6) (* s00 x)) (* 4 (* r00 s s)) (* (- 2) (* r00 s00 s00)) (* (- 6) (* x00 s)) (* 12 (* s00 s)) (* (- 2) (* r00 s00 s)) ?x758 (* 2 (* s s r)) (* 6 (* x s)) (* (- 4) (* s00 s00 r)) (* (- 36) ?x428) ?x842 ?x868 (* 2 (* s00 s r)) (* (- 36) (* r00 x00 r)) (* 54 (* r00 x)) ?x939 (* 36 ?x1482) (* (- 54) (* x00 r)) ?x143 (* 24 (* s00 r)) (* (- 24) (* r00 s)) (* 36 (* r00 r00 x)))))
 (let ((?x47 (* 3 s)))
 (let ((?x330 (* (- 3) s00)))
 (let ((?x556 (* (- 4) ?x543)))
 (let ((?x498 (* 2 ?x497)))
 (let ((?x488 (* (- 18) ?x474)))
 (let ((?x1242 (+ (* (- 9) (* s r)) ?x488 (* 9 (* r00 s00)) ?x498 (* 18 (* x r)) (* 6 (* r00 s r)) (* (- 6) ?x428) ?x556 (* 18 (* r00 x)) ?x330 (* 6 ?x1482) (* (- 18) (* x00 r)) ?x47 (* 9 (* s00 r)) (* 2 (* s00 s)) (* (- 9) (* r00 s)) (* (- 6) (* r00 s00 r)))))
 (let ((?x59 (* 6 x00)))
 (let ((?x48 (* 3 r00)))
 (let ((?x301 (* (- 3) r)))
 (let ((?x980 (+ (* (- 2) (* s r)) (* 12 (* r00 r00 r)) ?x301 ?x330 ?x47 ?x48 (* (- 4) (* s00 r)) (* 6 (* r00 s00)) (* (- 6) x) ?x59 (* (- 12) (* r00 r00 r00)))))
 (let (($x727 (= (+ s00 ?x232 (* 3 (* r r)) ?x267) 0)))
 (and $x727 (= ?x980 0) (= ?x1242 0) (= ?x1064 0) $x897 $x925)))))))))))))))))))))))))))))))))))))))))))))))))))) :qid k!35))
 ))
 (let ((?x970 (lambda ((r Int) (s Int) (x Int) )(let ((?x253 (* r00 r00)))
 (let ((?x267 (* (- 3) ?x253)))
 (let ((?x232 (* (- 1) s)))
 (let ((?x1542 (+ (- 3) s00 ?x232 (* (- 6) r) (* 3 (* (+ 1 r) (+ 1 r))) ?x267)))
 (let ((?x211 (* 6 r)))
 (let ((?x930 (+ 3 s ?x211)))
 (let ((?x673 (+ x ?x232)))
 (let ((?x1368 (+ 1 r)))
 (let ((?x1681 (+ x ?x232 (* (- 1) (* ?x1368 ?x1368 ?x673 ?x673 ?x673 ?x930 ?x930 ?x930)) (* (- 1) (* ?x930 ?x930 ?x930)))))
 (let (($x925 (not (= (* ?x1681 ?x1542) 0))))
 (let ((?x1298 (* x00 x00)))
 (let ((?x839 (* 108 ?x1298)))
 (let ((?x549 (* (- 9) s)))
 (let ((?x1482 (* r00 r00 s00)))
 (let ((?x824 (* (- 36) ?x1482)))
 (let ((?x137 (* 9 s00)))
 (let ((?x543 (* s00 s00)))
 (let ((?x855 (* 51 ?x543)))
 (let ((?x428 (* r00 r00 s)))
 (let ((?x1228 (* 36 ?x428)))
 (let ((?x1136 (* s00 s00 s00)))
 (let ((?x1586 (* 16 ?x1136)))
 (let ((?x757 (* s00 x00)))
 (let ((?x1437 (* (- 108) ?x757)))
 (let ((?x834 (* r00 r00 r00 x00)))
 (let ((?x913 (* (- 432) ?x834)))
 (let ((?x474 (* r00 x00)))
 (let ((?x331 (* 108 ?x474)))
 (let ((?x859 (+ (* 216 (* r00 s00 x00)) ?x331 (* (- 54) (* r00 s00)) (* 15 (* s s)) (* (- 216) (* r00 r00 r00 s)) (* (- 36) (* r00 r00 s00 s00)) (* (- 4) (* s s s)) (* 108 (* x x)) ?x913 (* (- 12) (* s00 s s)) (* 108 (* s00 x)) (* (- 108) (* r00 s00 s00)) (* 216 (* r00 r00 r00 s00)) (* 108 (* x00 s)) (* 432 (* r00 r00 r00 x)) (* (- 66) (* s00 s)) (* 108 (* r00 s00 s)) ?x1437 (* (- 216) (* r00 s00 x)) (* 36 (* r00 r00 s s)) ?x1586 (* (- 108) (* x s)) ?x1228 ?x855 (* (- 108) (* r00 x)) ?x137 ?x824 ?x549 (* 54 (* r00 s)) (* (- 216) (* x00 x)) ?x839)))
 (let (($x897 (= ?x859 0)))
 (let ((?x933 (* 15 ?x543)))
 (let ((?x829 (* r00 r00 x00)))
 (let ((?x1285 (* 36 ?x829)))
 (let ((?x627 (* (- 6) ?x757)))
 (let ((?x1129 (* 54 ?x474)))
 (let ((?x976 (+ (* 24 (* s r)) ?x1129 (* (- 36) (* r00 x r)) (* (- 24) (* r00 s00)) (* (- 3) (* s s)) (* (- 54) (* x r)) (* 6 (* s00 x)) (* (- 4) (* r00 s s)) (* 2 (* r00 s00 s00)) (* 6 (* x00 s)) (* (- 12) (* s00 s)) (* 2 (* r00 s00 s)) ?x627 (* (- 2) (* s s r)) (* (- 6) (* x s)) (* 4 (* s00 s00 r)) ?x1228 ?x1285 ?x933 (* (- 2) (* s00 s r)) (* 36 (* r00 x00 r)) (* (- 54) (* r00 x)) ?x137 ?x824 (* 54 (* x00 r)) ?x549 (* (- 24) (* s00 r)) (* 24 (* r00 s)) (* (- 36) (* r00 r00 x)))))
 (let ((?x451 (* (- 3) s)))
 (let ((?x44 (* 3 s00)))
 (let ((?x1126 (* 4 ?x543)))
 (let ((?x1419 (* 18 ?x474)))
 (let ((?x1569 (+ (* 9 (* s r)) ?x1419 (* (- 9) (* r00 s00)) (* (- 2) (* s s)) (* (- 18) (* x r)) (* (- 6) (* r00 s r)) (* 6 ?x428) ?x1126 (* (- 18) (* r00 x)) ?x44 (* (- 6) ?x1482) (* 18 (* x00 r)) ?x451 (* (- 9) (* s00 r)) (* (- 2) (* s00 s)) (* 9 (* r00 s)) (* 6 (* r00 s00 r)))))
 (let ((?x421 (* r00 r00 r00)))
 (let ((?x422 (* 12 ?x421)))
 (let ((?x453 (* (- 6) x00)))
 (let ((?x56 (* 6 x)))
 (let ((?x452 (* (- 3) r00)))
 (let ((?x43 (* 3 r)))
 (let ((?x888 (+ (* 2 (* s r)) (* (- 12) (* r00 r00 r)) ?x43 ?x44 ?x451 ?x452 (* 4 (* s00 r)) (* (- 6) (* r00 s00)) ?x56 ?x453 ?x422)))
 (let (($x727 (= (+ s00 ?x232 (* 3 (* r r)) ?x267) 0)))
 (let (($x978 (and $x727 (= ?x888 0) (= ?x1569 0) (= ?x976 0) $x897 $x925)))
 (let ((?x143 (* 9 s)))
 (let ((?x939 (* (- 9) s00)))
 (let ((?x868 (* (- 15) ?x543)))
 (let ((?x842 (* (- 36) ?x829)))
 (let ((?x758 (* 6 ?x757)))
 (let ((?x497 (* s s)))
 (let ((?x521 (* 3 ?x497)))
 (let ((?x503 (* (- 54) ?x474)))
 (let ((?x1064 (+ (* (- 24) (* s r)) ?x503 (* 36 (* r00 x r)) (* 24 (* r00 s00)) ?x521 (* 54 (* x r)) (* (- 6) (* s00 x)) (* 4 (* r00 s s)) (* (- 2) (* r00 s00 s00)) (* (- 6) (* x00 s)) (* 12 (* s00 s)) (* (- 2) (* r00 s00 s)) ?x758 (* 2 (* s s r)) (* 6 (* x s)) (* (- 4) (* s00 s00 r)) (* (- 36) ?x428) ?x842 ?x868 (* 2 (* s00 s r)) (* (- 36) (* r00 x00 r)) (* 54 (* r00 x)) ?x939 (* 36 ?x1482) (* (- 54) (* x00 r)) ?x143 (* 24 (* s00 r)) (* (- 24) (* r00 s)) (* 36 (* r00 r00 x)))))
 (let ((?x47 (* 3 s)))
 (let ((?x330 (* (- 3) s00)))
 (let ((?x556 (* (- 4) ?x543)))
 (let ((?x498 (* 2 ?x497)))
 (let ((?x488 (* (- 18) ?x474)))
 (let ((?x1242 (+ (* (- 9) (* s r)) ?x488 (* 9 (* r00 s00)) ?x498 (* 18 (* x r)) (* 6 (* r00 s r)) (* (- 6) ?x428) ?x556 (* 18 (* r00 x)) ?x330 (* 6 ?x1482) (* (- 18) (* x00 r)) ?x47 (* 9 (* s00 r)) (* 2 (* s00 s)) (* (- 9) (* r00 s)) (* (- 6) (* r00 s00 r)))))
 (let ((?x59 (* 6 x00)))
 (let ((?x48 (* 3 r00)))
 (let ((?x301 (* (- 3) r)))
 (let ((?x980 (+ (* (- 2) (* s r)) (* 12 (* r00 r00 r)) ?x301 ?x330 ?x47 ?x48 (* (- 4) (* s00 r)) (* 6 (* r00 s00)) (* (- 6) x) ?x59 (* (- 12) ?x421))))
 (let (($x558 (and $x727 (= ?x980 0) (= ?x1242 0) (= ?x1064 0) $x897 $x925)))
 (rewrite (= $x558 $x978)))))))))))))))))))))))))))))))))))))))))))))))))))))))))))))))))))))))))
 ))
 (let (($x229 (exists ((r Int) (s Int) (x Int) )(! (let ((?x211 (* 6 r)))
 (let ((?x212 (+ s ?x211 3)))
 (let ((?x219 (- x s)))
 (let ((?x215 (+ r 1)))
 (let ((?x223 (- (- ?x219 (* ?x215 ?x215 ?x212 ?x212 ?x212 ?x219 ?x219 ?x219)) (* ?x212 ?x212 ?x212))))
 (let ((?x224 (* (- (+ (- s00 ?x212) (* 3 ?x215 ?x215)) (* 3 r00 r00)) ?x223)))
 (let ((?x143 (* 9 s)))
 (let ((?x139 (* 36 r00 r00 s00)))
 (let ((?x137 (* 9 s00)))
 (let ((?x123 (* 36 r00 r00 s)))
 (let ((?x157 (- (+ (* 216 r00 s00 x00) (* 108 r00 x00)) (* 54 r00 s00))))
 (let ((?x164 (- (- (+ ?x157 (* 15 s s)) (* 216 r00 r00 r00 s)) (* 36 r00 r00 s00 s00))))
 (let ((?x171 (- (+ (- ?x164 (* 4 s s s)) (* 108 x x)) (* 432 r00 r00 r00 x00))))
 (let ((?x176 (- (+ (- ?x171 (* 12 s s s00)) (* 108 s00 x)) (* 108 r00 s00 s00))))
 (let ((?x180 (+ ?x176 (* 216 r00 r00 r00 s00) (* 108 s x00) (* 432 r00 r00 r00 x))))
 (let ((?x188 (- (+ (- ?x180 (* 66 s s00)) (* 108 r00 s s00)) (* 108 s00 x00))))
 (let ((?x193 (+ (- ?x188 (* 216 r00 s00 x)) (* 36 r00 r00 s s) (* 16 s00 s00 s00))))
 (let ((?x200 (- (+ (- ?x193 (* 108 s x)) ?x123 (* 51 s00 s00)) (* 108 r00 x))))
 (let ((?x207 (- (+ (- (- (+ ?x200 ?x137) ?x139) ?x143) (* 54 r00 s)) (* 216 x x00))))
 (let ((?x105 (+ (- (* (- 24) r s) (* 54 r00 x00)) (* 36 r r00 x) (* 24 r00 s00) (* 3 s s) (* 54 r x))))
 (let ((?x112 (- (+ (- ?x105 (* 6 s00 x)) (* 4 r00 s s)) (* 2 r00 s00 s00))))
 (let ((?x117 (- (+ (- ?x112 (* 6 s x00)) (* 12 s s00)) (* 2 r00 s s00))))
 (let ((?x121 (+ ?x117 (* 6 s00 x00) (* 2 r s s) (* 6 s x))))
 (let ((?x129 (- (- (- ?x121 (* 4 r s00 s00)) ?x123) (* 36 r00 r00 x00))))
 (let ((?x134 (- (+ (- ?x129 (* 15 s00 s00)) (* 2 r s s00)) (* 36 r r00 x00))))
 (let ((?x142 (- (+ (- (+ ?x134 (* 54 r00 x)) ?x137) ?x139) (* 54 r x00))))
 (let ((?x149 (+ (- (+ ?x142 ?x143 (* 24 r s00)) (* 24 r00 s)) (* 36 r00 r00 x))))
 (let ((?x47 (* 3 s)))
 (let ((?x44 (* 3 s00)))
 (let ((?x74 (+ (- (* (- 9) r s) (* 18 r00 x00)) (* 9 r00 s00) (* 2 s s) (* 18 r x) (* 6 r r00 s))))
 (let ((?x80 (+ (- (- ?x74 (* 6 r00 r00 s)) (* 4 s00 s00)) (* 18 r00 x))))
 (let ((?x85 (- (+ (- ?x80 ?x44) (* 6 r00 r00 s00)) (* 18 r x00))))
 (let ((?x91 (- (+ ?x85 ?x47 (* 9 r s00) (* 2 s s00)) (* 9 r00 s))))
 (let ((?x59 (* 6 x00)))
 (let ((?x56 (* 6 x)))
 (let ((?x48 (* 3 r00)))
 (let ((?x43 (* 3 r)))
 (let ((?x46 (- (- (+ (* (- 2) r s) (* 12 r r00 r00)) ?x43) ?x44)))
 (let ((?x55 (+ (- (+ ?x46 ?x47 ?x48) (* 4 r s00)) (* 6 r00 s00))))
 (let (($x36 (= (- (+ (- s00 s) (* 3 r r)) (* 3 r00 r00)) 0)))
 (and $x36 (= (- (+ (- ?x55 ?x56) ?x59) (* 12 r00 r00 r00)) 0) (= (- ?x91 (* 6 r r00 s00)) 0) (= ?x149 0) (= (+ ?x207 (* 108 x00 x00)) 0) (or (not (= ?x224 0)))))))))))))))))))))))))))))))))))))))))))) :qid k!35))
 ))
 (let ((?x1349 (lambda ((r Int) (s Int) (x Int) )(let ((?x253 (* r00 r00)))
 (let ((?x267 (* (- 3) ?x253)))
 (let ((?x232 (* (- 1) s)))
 (let ((?x1542 (+ (- 3) s00 ?x232 (* (- 6) r) (* 3 (* (+ 1 r) (+ 1 r))) ?x267)))
 (let ((?x211 (* 6 r)))
 (let ((?x930 (+ 3 s ?x211)))
 (let ((?x673 (+ x ?x232)))
 (let ((?x1368 (+ 1 r)))
 (let ((?x1681 (+ x ?x232 (* (- 1) (* ?x1368 ?x1368 ?x673 ?x673 ?x673 ?x930 ?x930 ?x930)) (* (- 1) (* ?x930 ?x930 ?x930)))))
 (let (($x925 (not (= (* ?x1681 ?x1542) 0))))
 (let ((?x1298 (* x00 x00)))
 (let ((?x839 (* 108 ?x1298)))
 (let ((?x549 (* (- 9) s)))
 (let ((?x1482 (* r00 r00 s00)))
 (let ((?x824 (* (- 36) ?x1482)))
 (let ((?x137 (* 9 s00)))
 (let ((?x543 (* s00 s00)))
 (let ((?x855 (* 51 ?x543)))
 (let ((?x428 (* r00 r00 s)))
 (let ((?x1228 (* 36 ?x428)))
 (let ((?x1136 (* s00 s00 s00)))
 (let ((?x1586 (* 16 ?x1136)))
 (let ((?x757 (* s00 x00)))
 (let ((?x1437 (* (- 108) ?x757)))
 (let ((?x834 (* r00 r00 r00 x00)))
 (let ((?x913 (* (- 432) ?x834)))
 (let ((?x474 (* r00 x00)))
 (let ((?x331 (* 108 ?x474)))
 (let ((?x859 (+ (* 216 (* r00 s00 x00)) ?x331 (* (- 54) (* r00 s00)) (* 15 (* s s)) (* (- 216) (* r00 r00 r00 s)) (* (- 36) (* r00 r00 s00 s00)) (* (- 4) (* s s s)) (* 108 (* x x)) ?x913 (* (- 12) (* s00 s s)) (* 108 (* s00 x)) (* (- 108) (* r00 s00 s00)) (* 216 (* r00 r00 r00 s00)) (* 108 (* x00 s)) (* 432 (* r00 r00 r00 x)) (* (- 66) (* s00 s)) (* 108 (* r00 s00 s)) ?x1437 (* (- 216) (* r00 s00 x)) (* 36 (* r00 r00 s s)) ?x1586 (* (- 108) (* x s)) ?x1228 ?x855 (* (- 108) (* r00 x)) ?x137 ?x824 ?x549 (* 54 (* r00 s)) (* (- 216) (* x00 x)) ?x839)))
 (let (($x897 (= ?x859 0)))
 (let ((?x143 (* 9 s)))
 (let ((?x939 (* (- 9) s00)))
 (let ((?x868 (* (- 15) ?x543)))
 (let ((?x829 (* r00 r00 x00)))
 (let ((?x842 (* (- 36) ?x829)))
 (let ((?x758 (* 6 ?x757)))
 (let ((?x497 (* s s)))
 (let ((?x521 (* 3 ?x497)))
 (let ((?x503 (* (- 54) ?x474)))
 (let ((?x1064 (+ (* (- 24) (* s r)) ?x503 (* 36 (* r00 x r)) (* 24 (* r00 s00)) ?x521 (* 54 (* x r)) (* (- 6) (* s00 x)) (* 4 (* r00 s s)) (* (- 2) (* r00 s00 s00)) (* (- 6) (* x00 s)) (* 12 (* s00 s)) (* (- 2) (* r00 s00 s)) ?x758 (* 2 (* s s r)) (* 6 (* x s)) (* (- 4) (* s00 s00 r)) (* (- 36) ?x428) ?x842 ?x868 (* 2 (* s00 s r)) (* (- 36) (* r00 x00 r)) (* 54 (* r00 x)) ?x939 (* 36 ?x1482) (* (- 54) (* x00 r)) ?x143 (* 24 (* s00 r)) (* (- 24) (* r00 s)) (* 36 (* r00 r00 x)))))
 (let ((?x47 (* 3 s)))
 (let ((?x330 (* (- 3) s00)))
 (let ((?x556 (* (- 4) ?x543)))
 (let ((?x498 (* 2 ?x497)))
 (let ((?x488 (* (- 18) ?x474)))
 (let ((?x1242 (+ (* (- 9) (* s r)) ?x488 (* 9 (* r00 s00)) ?x498 (* 18 (* x r)) (* 6 (* r00 s r)) (* (- 6) ?x428) ?x556 (* 18 (* r00 x)) ?x330 (* 6 ?x1482) (* (- 18) (* x00 r)) ?x47 (* 9 (* s00 r)) (* 2 (* s00 s)) (* (- 9) (* r00 s)) (* (- 6) (* r00 s00 r)))))
 (let ((?x59 (* 6 x00)))
 (let ((?x48 (* 3 r00)))
 (let ((?x301 (* (- 3) r)))
 (let ((?x980 (+ (* (- 2) (* s r)) (* 12 (* r00 r00 r)) ?x301 ?x330 ?x47 ?x48 (* (- 4) (* s00 r)) (* 6 (* r00 s00)) (* (- 6) x) ?x59 (* (- 12) (* r00 r00 r00)))))
 (let (($x727 (= (+ s00 ?x232 (* 3 (* r r)) ?x267) 0)))
 (let (($x558 (and $x727 (= ?x980 0) (= ?x1242 0) (= ?x1064 0) $x897 $x925)))
 (let ((?x219 (- x s)))
 (let ((?x212 (+ s ?x211 3)))
 (let ((?x215 (+ r 1)))
 (let ((?x223 (- (- ?x219 (* ?x215 ?x215 ?x212 ?x212 ?x212 ?x219 ?x219 ?x219)) (* ?x212 ?x212 ?x212))))
 (let ((?x224 (* (- (+ (- s00 ?x212) (* 3 ?x215 ?x215)) (* 3 r00 r00)) ?x223)))
 (let ((?x139 (* 36 r00 r00 s00)))
 (let ((?x123 (* 36 r00 r00 s)))
 (let ((?x157 (- (+ (* 216 r00 s00 x00) (* 108 r00 x00)) (* 54 r00 s00))))
 (let ((?x164 (- (- (+ ?x157 (* 15 s s)) (* 216 r00 r00 r00 s)) (* 36 r00 r00 s00 s00))))
 (let ((?x171 (- (+ (- ?x164 (* 4 s s s)) (* 108 x x)) (* 432 r00 r00 r00 x00))))
 (let ((?x176 (- (+ (- ?x171 (* 12 s s s00)) (* 108 s00 x)) (* 108 r00 s00 s00))))
 (let ((?x180 (+ ?x176 (* 216 r00 r00 r00 s00) (* 108 s x00) (* 432 r00 r00 r00 x))))
 (let ((?x188 (- (+ (- ?x180 (* 66 s s00)) (* 108 r00 s s00)) (* 108 s00 x00))))
 (let ((?x193 (+ (- ?x188 (* 216 r00 s00 x)) (* 36 r00 r00 s s) (* 16 s00 s00 s00))))
 (let ((?x200 (- (+ (- ?x193 (* 108 s x)) ?x123 (* 51 s00 s00)) (* 108 r00 x))))
 (let ((?x207 (- (+ (- (- (+ ?x200 ?x137) ?x139) ?x143) (* 54 r00 s)) (* 216 x x00))))
 (let ((?x105 (+ (- (* (- 24) r s) (* 54 r00 x00)) (* 36 r r00 x) (* 24 r00 s00) (* 3 s s) (* 54 r x))))
 (let ((?x112 (- (+ (- ?x105 (* 6 s00 x)) (* 4 r00 s s)) (* 2 r00 s00 s00))))
 (let ((?x117 (- (+ (- ?x112 (* 6 s x00)) (* 12 s s00)) (* 2 r00 s s00))))
 (let ((?x121 (+ ?x117 (* 6 s00 x00) (* 2 r s s) (* 6 s x))))
 (let ((?x129 (- (- (- ?x121 (* 4 r s00 s00)) ?x123) (* 36 r00 r00 x00))))
 (let ((?x134 (- (+ (- ?x129 (* 15 s00 s00)) (* 2 r s s00)) (* 36 r r00 x00))))
 (let ((?x142 (- (+ (- (+ ?x134 (* 54 r00 x)) ?x137) ?x139) (* 54 r x00))))
 (let ((?x149 (+ (- (+ ?x142 ?x143 (* 24 r s00)) (* 24 r00 s)) (* 36 r00 r00 x))))
 (let ((?x44 (* 3 s00)))
 (let ((?x74 (+ (- (* (- 9) r s) (* 18 r00 x00)) (* 9 r00 s00) (* 2 s s) (* 18 r x) (* 6 r r00 s))))
 (let ((?x80 (+ (- (- ?x74 (* 6 r00 r00 s)) (* 4 s00 s00)) (* 18 r00 x))))
 (let ((?x85 (- (+ (- ?x80 ?x44) (* 6 r00 r00 s00)) (* 18 r x00))))
 (let ((?x91 (- (+ ?x85 ?x47 (* 9 r s00) (* 2 s s00)) (* 9 r00 s))))
 (let ((?x56 (* 6 x)))
 (let ((?x43 (* 3 r)))
 (let ((?x46 (- (- (+ (* (- 2) r s) (* 12 r r00 r00)) ?x43) ?x44)))
 (let ((?x55 (+ (- (+ ?x46 ?x47 ?x48) (* 4 r s00)) (* 6 r00 s00))))
 (let (($x36 (= (- (+ (- s00 s) (* 3 r r)) (* 3 r00 r00)) 0)))
 (let (($x228 (and $x36 (= (- (+ (- ?x55 ?x56) ?x59) (* 12 r00 r00 r00)) 0) (= (- ?x91 (* 6 r r00 s00)) 0) (= ?x149 0) (= (+ ?x207 (* 108 x00 x00)) 0) (or (not (= ?x224 0))))))
 (rewrite (= $x228 $x558))))))))))))))))))))))))))))))))))))))))))))))))))))))))))))))))))))))))))))))))))))))))))
 ))
 (let ((@x230 (asserted $x229)))
 (let ((@x1464 (mp (mp @x230 (quant-intro (proof-bind ?x1349) (= $x229 $x943)) $x943) (rewrite (= $x943 $x943)) $x943)))
 (let ((@x1650 (mp (mp @x1464 (quant-intro (proof-bind ?x970) (= $x943 $x1429)) $x1429) (quant-intro (proof-bind ?x256) (= $x1429 $x255)) $x255)))
 (let ((@x597 (mp (mp~ @x1650 (sk (~ $x255 $x1647)) $x1647) (rewrite (= $x1647 $x557)) $x557)))
 (let ((@x1521 (and-elim @x597 $x1017)))
 (let ((@x1687 (unit-resolution ((_ th-lemma arith triangle-eq) (or (not $x1017) $x1226)) @x1521 $x1226)))
 (let (($x686 (>= ?x1664 0)))
 (let ((@x931 (unit-resolution ((_ th-lemma arith triangle-eq) (or (not $x1017) $x686)) @x1521 $x686)))
 (let (($x1612 (not (<= ?x1363 0))))
 (let (($x1388 (>= ?x1363 0)))
 (let ((@x1580 (unit-resolution ((_ th-lemma arith triangle-eq) (or $x898 $x1612 (not $x1388))) (and-elim @x597 $x1665) (or $x1612 (not $x1388)))))
 (let ((@x1502 (unit-resolution @x1580 (lemma ((_ th-lemma arith farkas 1 1 1) (hypothesis (not $x1388)) @x931 @x1687 false) $x1388) $x1612)))
 ((_ th-lemma arith farkas 1 1 1) @x1502 @x931 @x1687 false))))))))))))))))))))))))))))))))))))))))))))))))))))))))))))))))))))))))))))))))))))))))))))))))))))))))))))))))))))))))))))))))

(:added-eqs                 5
 :arith-assert-diseq        1
 :arith-assert-lower        9
 :arith-assert-upper        8
 :arith-conflicts           2
 :arith-eq-adapter          6
 :arith-num-rows            9
 :arith-pseudo-nonlinear    2
 :arith-tableau-max-columns 102
 :arith-tableau-max-rows    9
 :conflicts                 2
 :decisions                 1
 :del-clause                17
 :max-memory                3.92
 :memory                    3.33
 :mk-bool-var               24
 :mk-clause                 19
 :num-allocs                1301942
 :num-checks                1
 :propagations              12
 :rlimit-count              7187
 :time                      0.01
 :total-time                0.02)
